p cnf 115 377
-3 -1 0
-3 2 0
1 -2 3 0
-5 -3 0
-5 -4 0
3 4 5 0
7 -5 0
7 -6 0
5 6 -7 0
-9 7 0
-9 -8 0
-7 8 9 0
10 -5 0
10 9 0
5 -9 -10 0
12 4 0
12 -11 0
-4 11 -12 0
-15 13 0
-15 14 0
-13 -14 15 0
-18 16 0
-18 17 0
-16 -17 18 0
-18 -19 -20 0
18 19 -20 0
-18 19 20 0
18 -19 20 0
21 15 0
21 -20 0
-15 20 -21 0
-22 13 0
-22 -2 0
-13 2 22 0
-8 22 -23 0
8 -22 -23 0
-8 -22 23 0
8 22 23 0
-24 -21 0
-24 -23 0
21 23 24 0
25 12 0
25 24 0
-12 -24 -25 0
26 12 0
26 -4 0
-12 4 -26 0
-27 -26 0
-27 -19 0
26 19 27 0
28 25 0
28 -27 0
-25 27 -28 0
-30 19 0
-30 29 0
-19 -29 30 0
-31 16 0
-31 30 0
-16 -30 31 0
32 -31 0
32 23 0
31 -23 -32 0
33 28 0
33 32 0
-28 -32 -33 0
-35 18 0
-35 30 0
-18 -30 35 0
-36 -34 0
-36 -35 0
34 35 36 0
34 -8 -37 0
-34 8 -37 0
34 8 37 0
-34 -8 37 0
-38 -13 0
-38 -37 0
13 37 38 0
-39 1 0
-39 38 0
-1 -38 39 0
-39 -18 -40 0
39 18 -40 0
-39 18 40 0
39 -18 40 0
-42 -40 0
-42 -41 0
40 41 42 0
-23 -42 -43 0
23 42 -43 0
-23 42 43 0
23 -42 43 0
-44 17 0
-44 29 0
-17 -29 44 0
-43 44 -45 0
43 -44 -45 0
-43 -44 45 0
43 44 45 0
46 34 0
46 4 0
-34 -4 -46 0
-45 -46 -47 0
45 46 -47 0
-45 46 47 0
45 -46 47 0
48 36 0
48 47 0
-36 -47 -48 0
49 41 0
49 -29 0
-41 29 -49 0
-49 -50 -51 0
49 50 -51 0
-49 50 51 0
49 -50 51 0
-52 -30 0
-52 -29 0
30 29 52 0
-53 51 0
-53 52 0
-51 -52 53 0
-48 -53 -54 0
48 53 -54 0
-48 53 54 0
48 -53 54 0
-55 19 0
-55 -30 0
-19 30 55 0
56 -55 0
56 -17 0
55 17 -56 0
-56 40 -57 0
56 -40 -57 0
-56 -40 57 0
56 40 57 0
-54 -57 -58 0
54 57 -58 0
-54 57 58 0
54 -57 58 0
-30 -17 -59 0
30 17 -59 0
-30 17 59 0
30 -17 59 0
-58 -59 -60 0
58 59 -60 0
-58 59 60 0
58 -59 60 0
61 -33 0
61 60 0
33 -60 -61 0
62 -46 0
62 39 0
46 -39 -62 0
-62 13 -63 0
62 -13 -63 0
-62 -13 63 0
62 13 63 0
-61 63 -64 0
61 -63 -64 0
-61 -63 64 0
61 63 64 0
-65 -26 0
-65 2 0
26 -2 65 0
66 -34 0
66 65 0
34 -65 -66 0
-34 -41 -67 0
34 41 -67 0
-34 41 67 0
34 -41 67 0
-68 -8 0
-68 -67 0
8 67 68 0
69 -49 0
69 -68 0
49 68 -69 0
66 69 -70 0
-66 -69 -70 0
66 -69 70 0
-66 69 70 0
71 -3 0
71 -13 0
3 13 -71 0
72 -70 0
72 -71 0
70 71 -72 0
73 17 0
73 29 0
-17 -29 -73 0
18 73 -74 0
-18 -73 -74 0
18 -73 74 0
-18 73 74 0
75 74 0
75 -26 0
-74 26 -75 0
76 -41 0
76 -6 0
41 6 -76 0
77 75 0
77 76 0
-75 -76 -77 0
-79 -35 0
-79 78 0
35 -78 79 0
80 79 0
80 8 0
-79 -8 -80 0
-12 -29 -81 0
12 29 -81 0
-12 29 81 0
12 -29 81 0
-82 -80 0
-82 81 0
80 -81 82 0
-83 -3 0
-83 -5 0
3 5 83 0
84 -1 0
84 -43 0
1 43 -84 0
-34 84 -85 0
34 -84 -85 0
-34 -84 85 0
34 84 85 0
-86 -83 0
-86 85 0
83 -85 86 0
55 13 -87 0
-55 -13 -87 0
55 -13 87 0
-55 13 87 0
88 87 0
88 -4 0
-87 4 -88 0
86 -88 -89 0
-86 88 -89 0
86 88 89 0
-86 -88 89 0
-90 43 0
-90 -8 0
-43 8 90 0
-91 -4 0
-91 -67 0
4 67 91 0
-92 22 0
-92 -3 0
-22 3 92 0
93 -16 0
93 92 0
16 -92 -93 0
94 -11 0
94 16 0
11 -16 -94 0
-95 93 0
-95 94 0
-93 -94 95 0
96 -91 0
96 95 0
91 -95 -96 0
97 -39 0
97 -11 0
39 11 -97 0
98 -96 0
98 -97 0
96 97 -98 0
99 90 0
99 -98 0
-90 98 -99 0
-89 -99 -100 0
89 99 -100 0
-89 99 100 0
89 -99 100 0
-82 100 -101 0
82 -100 -101 0
-82 -100 101 0
82 100 101 0
-102 9 0
-102 26 0
-9 -26 102 0
-15 40 -103 0
15 -40 -103 0
-15 -40 103 0
15 40 103 0
-104 102 0
-104 103 0
-102 -103 104 0
-101 -104 -105 0
101 104 -105 0
-101 104 105 0
101 -104 105 0
77 105 -106 0
-77 -105 -106 0
77 -105 106 0
-77 105 106 0
-107 34 0
-107 78 0
-34 -78 107 0
108 44 0
108 -8 0
-44 8 -108 0
-109 -107 0
-109 108 0
107 -108 109 0
-106 -109 -110 0
106 109 -110 0
-106 109 110 0
106 -109 110 0
111 -72 0
111 110 0
72 -110 -111 0
112 64 0
112 -111 0
-64 111 -112 0
1 -30 -113 0
-1 30 -113 0
1 30 113 0
-1 -30 113 0
-114 112 0
-114 113 0
-112 -113 114 0
10 -114 -115 0
-10 114 -115 0
10 114 115 0
-10 -114 115 0
68 -106 15 16 -12 -94 0
-29 48 84 17 83 -79 0
-44 79 102 -89 93 90 0
-23 69 0
67 -2 -45 -64 0
-25 20 -83 0
61 71 -63 0
-90 64 0
-19 -42 25 16 0
47 -92 -113 0
-80 -73 32 2 45 0
-81 -53 0
-43 -88 16 -103 44 -3 0
-31 -44 0
-106 16 0
11 83 0
-18 -76 106 -75 43 -62 0
20 -7 114 55 79 0
-109 -101 -21 0
-54 -69 37 0
-47 73 0
113 -85 0
4 -90 3 0
7 -87 114 -45 0
62 79 0
-74 100 -38 -75 0
-91 -15 0
-90 -42 0
67 -97 29 -56 71 68 0
50 -46 0
-78 -1 50 58 -25 0
-88 35 -86 92 0
74 88 -23 -75 0
-14 -32 0
30 94 -15 -3 108 -33 0
73 -11 0
-98 109 11 114 86 105 0
-34 57 0
41 -78 -86 88 -81 111 0
16 59 -67 85 0
-47 90 78 0
-74 -31 15 41 55 0
-13 -15 112 41 0
45 -109 0
67 -44 107 0
-33 32 2 0
16 35 0
-75 97 -57 19 30 0
-50 -53 0
115 0
